NAME: ch130
COMMENT: Local search tour for ch130 (7055.184223925302)
TYPE: TOUR
DIMENSION: 130
TOUR_SECTION: 1 130 50 2 118 80 46 18 8 108 114 3 83 30 59 90 125 85 66 78 121 126 21 33 22 37 47 40 44 42 93 20 4 35 54 17 31 34 43 104 127 107 63 68 98 110 89 94 77 103 56 65 12 87 81 29 15 19 27 100 116 24 95 79 38 106 58 49 53 120 60 51 55 122 23 13 67 96 14 10 102 6 91 72 92 73 99 74 75 52 9 57 82 101 123 111 119 84 36 32 113 25 48 70 97 7 26 88 86 69 64 124 129 61 109 76 11 5 45 16 128 105 62 28 115 112 117 39 71 41 -1
EOF